400
400
279
278
278
277
276
276
275
275
274
274
273
273
273
273
272
272
272
271
271
270
270
269
268
267
267
266
266
266
266
265
265
265
265
265
264
263
263
262
261
261
261
261
260
260
259
259
259
259
258
258
258
257
257
255
254
254
254
254
254
253
253
253
252
252
252
251
251
251
250
250
250
249
249
249
247
247
246
244
243
243
242
242
240
240
240
240
239
239
238
238
237
237
237
236
236
234
234
233
232
231
230
229
228
228
228
227
227
227
226
226
225
224
224
222
222
222
222
221
221
220
220
219
219
219
217
217
216
215
215
215
214
214
214
214
214
213
213
213
212
211
211
211
210
209
208
207
206
206
206
205
205
205
204
203
203
202
201
201
201
201
201
201
200
200
199
199
199
199
198
198
197
197
197
197
197
196
196
196
195
195
195
194
194
193
193
193
193
192
192
191
191
191
190
190
190
190
190
189
189
188
188
187
187
186
186
184
184
184
182
182
180
179
179
178
178
178
178
177
175
175
174
173
173
172
171
170
170
170
170
169
169
169
168
168
167
166
166
166
165
165
165
164
163
162
162
162
161
161
161
161
160
160
159
159
159
159
158
157
157
156
156
155
155
155
154
154
153
153
152
151
149
148
148
148
147
146
146
145
145
145
145
145
145
143
142
141
140
140
139
138
138
137
137
136
136
136
135
135
135
135
135
135
134
134
134
132
132
132
132
131
130
130
130
129
129
129
128
126
126
125
124
124
123
123
122
122
121
121
120
120
120
120
119
118
117
117
115
114
114
112
111
111
110
110
109
109
109
108
108
108
107
107
107
107
106
106
106
105
104
104
103
103
103
102
101
100
100
99
98
97
96
96
95
95
94
93
91
91
90
89
88
88
88
87
87
86
86
85
85
84
84
83
83
81
81
81
81
81
80
80
